70
3 0 2
3 1 3
3 2 1
4 1 1
4 2 1
4 3 5
5 0 2
5 2 3
5 3 4
5 4 1
6 0 3
6 1 2
6 2 4
6 3 5
6 5 2
7 3 2
7 4 4
7 5 1
8 4 1
9 2 4
9 3 3
9 6 2
9 7 2
10 0 1
10 1 3
10 2 5
10 4 4
10 5 3
10 8 2
10 9 3
11 0 5
11 2 1
11 3 2
11 4 1
11 5 5
11 7 4
11 9 4
11 10 2
12 1 3
12 2 3
12 3 3
12 8 1
12 11 3
13 0 3
13 3 5
13 4 1
13 5 2
13 6 3
13 7 3
13 8 1
13 10 3
13 12 5
14 0 4
14 1 5
14 2 4
14 4 5
14 5 1
14 8 1
14 9 2
14 10 4
14 11 4
14 12 4
15 0 1
15 2 3
15 3 3
15 4 3
15 8 1
15 9 4
15 12 5
15 14 1
16 5 2
16 8 1
16 9 5
16 12 2
16 13 4
17 0 5
17 1 1
17 6 3
17 7 5
17 10 2
17 12 4
17 14 3
17 15 5
17 16 3
18 3 5
18 4 5
18 6 2
18 7 1
18 8 5
18 9 5
18 10 2
18 16 5
18 17 3
19 1 1
19 2 2
19 6 1
19 7 5
19 8 2
19 10 3
19 14 2
19 15 2
20 2 4
20 3 1
20 4 3
20 5 2
20 6 3
20 7 2
20 8 3
20 12 2
21 2 1
21 3 4
21 6 3
21 7 2
21 9 5
21 10 1
21 11 5
21 13 1
21 15 5
21 16 4
21 18 5
21 19 5
22 1 3
22 2 4
22 4 2
22 7 3
22 8 3
22 10 1
22 11 1
22 12 1
22 13 2
22 14 1
22 15 3
22 16 1
22 17 5
22 18 5
22 20 3
23 0 2
23 1 1
23 6 3
23 7 1
23 9 5
23 10 3
23 11 5
23 12 5
23 13 3
23 15 1
23 16 3
23 18 3
23 20 5
23 21 4
24 2 4
24 4 3
24 6 1
24 8 3
24 10 5
24 13 4
24 14 1
24 15 4
24 19 2
24 20 4
24 23 4
25 1 3
25 2 3
25 3 1
25 5 5
25 10 1
25 11 3
25 13 5
25 14 1
25 17 1
25 21 1
26 2 5
26 3 5
26 4 3
26 7 1
26 13 4
26 15 1
26 16 1
26 20 2
27 4 5
27 5 1
27 7 2
27 8 4
27 11 3
27 15 3
27 21 4
27 22 2
27 24 5
28 0 5
28 2 4
28 4 5
28 5 5
28 6 2
28 7 2
28 8 5
28 9 3
28 11 2
28 16 1
28 17 5
28 18 2
28 19 1
28 20 2
28 21 1
28 26 4
28 27 2
29 4 2
29 5 4
29 6 4
29 7 2
29 8 3
29 9 3
29 10 3
29 11 5
29 14 5
29 15 3
29 16 1
29 17 4
29 18 2
29 23 1
29 27 3
29 28 4
30 2 4
30 3 4
30 4 3
30 5 3
30 9 1
30 10 5
30 11 2
30 12 1
30 13 1
30 15 3
30 16 5
30 17 5
30 22 1
30 24 4
30 27 4
30 28 4
31 2 1
31 3 4
31 4 3
31 8 4
31 11 5
31 14 5
31 21 2
31 23 3
31 25 5
31 26 3
31 28 4
31 29 4
32 0 1
32 3 1
32 4 4
32 6 5
32 8 3
32 9 4
32 10 1
32 11 1
32 12 4
32 17 1
32 19 5
32 21 3
32 22 3
32 25 2
32 29 1
32 31 2
33 1 4
33 2 2
33 3 1
33 6 2
33 7 4
33 8 1
33 9 5
33 10 2
33 11 2
33 12 5
33 13 1
33 15 3
33 17 3
33 18 3
33 20 3
33 21 1
33 23 3
33 25 1
33 27 4
33 30 5
33 31 2
33 32 5
34 0 3
34 2 2
34 4 5
34 6 2
34 7 3
34 8 2
34 11 1
34 12 4
34 14 5
34 17 1
34 19 4
34 21 1
34 22 1
34 23 3
34 25 5
34 32 5
34 33 3
35 0 3
35 1 1
35 3 5
35 4 2
35 6 4
35 7 3
35 8 2
35 10 3
35 11 1
35 12 4
35 19 2
35 21 4
35 23 1
35 25 3
35 28 3
35 29 3
35 31 5
35 32 5
35 33 1
36 2 2
36 3 1
36 4 4
36 7 3
36 11 5
36 13 5
36 15 1
36 18 2
36 19 1
36 22 3
36 25 2
36 26 2
36 27 4
36 28 3
36 29 5
36 30 1
36 33 2
36 34 2
36 35 5
37 1 1
37 2 5
37 3 2
37 5 3
37 7 4
37 8 4
37 9 1
37 11 3
37 13 2
37 15 3
37 17 4
37 19 5
37 21 1
37 22 2
37 24 2
37 26 2
37 27 4
37 30 4
38 5 2
38 7 3
38 8 2
38 9 4
38 12 3
38 13 2
38 14 5
38 16 4
38 19 4
38 20 4
38 21 5
38 22 2
38 24 1
38 30 4
39 0 5
39 1 3
39 4 1
39 10 4
39 11 1
39 12 4
39 14 2
39 15 5
39 16 1
39 17 4
39 19 5
39 22 3
39 24 1
39 25 3
39 26 4
39 30 4
39 31 5
39 33 1
39 37 3
39 38 2
40 0 1
40 4 4
40 5 5
40 6 2
40 7 3
40 9 1
40 15 2
40 16 1
40 17 1
40 18 4
40 21 3
40 23 1
40 26 5
40 27 1
40 29 2
40 31 4
40 32 2
40 34 3
40 36 4
40 37 4
41 1 3
41 4 1
41 7 1
41 8 2
41 10 3
41 13 2
41 17 3
41 18 4
41 22 3
41 24 2
41 25 3
41 27 3
41 28 1
41 29 5
41 32 1
41 33 1
41 35 5
41 36 1
41 37 5
42 0 2
42 1 2
42 4 3
42 6 5
42 8 2
42 9 4
42 10 3
42 15 2
42 16 1
42 18 2
42 19 2
42 20 5
42 22 5
42 25 4
42 26 2
42 27 2
42 28 3
42 30 2
42 31 3
42 32 5
42 35 5
42 36 5
42 40 5
43 2 1
43 7 5
43 10 5
43 12 2
43 14 2
43 16 5
43 18 4
43 22 4
43 25 5
43 28 3
43 29 5
43 32 2
43 33 3
43 34 5
43 37 4
43 39 5
43 41 3
43 42 1
44 0 2
44 1 4
44 2 5
44 8 5
44 10 2
44 11 3
44 12 2
44 14 5
44 17 4
44 19 3
44 20 1
44 23 2
44 26 5
44 29 4
44 34 5
44 37 4
44 38 4
44 40 1
44 42 5
45 2 2
45 3 1
45 5 5
45 7 5
45 8 2
45 12 2
45 14 4
45 17 3
45 18 3
45 19 2
45 20 5
45 22 1
45 23 1
45 28 4
45 29 2
45 31 3
45 32 1
45 34 5
45 38 1
45 43 5
46 0 1
46 2 2
46 3 5
46 4 5
46 5 4
46 6 1
46 8 5
46 10 2
46 14 4
46 17 4
46 18 4
46 19 5
46 21 2
46 22 4
46 24 4
46 25 3
46 27 4
46 29 2
46 30 5
46 32 4
46 33 2
46 34 3
46 35 1
46 36 4
46 37 4
46 38 3
46 41 3
46 44 3
47 0 4
47 9 2
47 11 1
47 12 3
47 13 1
47 18 1
47 19 4
47 20 4
47 21 1
47 22 4
47 23 3
47 25 4
47 30 5
47 31 2
47 33 4
47 34 1
47 37 2
47 38 4
47 40 3
47 41 1
47 42 5
47 43 4
47 44 5
48 9 1
48 10 3
48 15 3
48 17 1
48 18 1
48 20 1
48 23 1
48 24 2
48 25 4
48 27 5
48 29 5
48 32 3
48 34 3
48 37 2
48 38 2
48 39 1
48 42 5
48 43 5
48 44 1
48 46 4
49 1 5
49 3 2
49 4 1
49 5 2
49 7 4
49 9 2
49 11 2
49 13 5
49 16 3
49 18 4
49 20 5
49 24 2
49 27 2
49 30 3
49 32 5
49 33 3
49 34 1
49 35 4
49 38 4
49 40 3
49 42 3
49 43 5
49 44 2
49 45 2
49 47 1
49 48 2
50 0 2
50 1 3
50 2 3
50 5 1
50 6 4
50 9 4
50 12 3
50 13 1
50 14 4
50 16 3
50 18 5
50 19 2
50 20 3
50 22 1
50 23 1
50 24 1
50 25 4
50 27 5
50 30 3
50 31 4
50 32 3
50 33 3
50 34 2
50 36 2
50 40 3
50 41 5
50 44 3
50 46 4
50 49 2
51 1 3
51 3 2
51 5 3
51 8 2
51 9 1
51 12 5
51 13 5
51 17 3
51 19 5
51 21 2
51 22 5
51 24 5
51 25 3
51 27 3
51 28 3
51 30 2
51 34 2
51 35 2
51 36 4
51 37 2
51 38 4
51 45 5
51 49 4
52 2 4
52 6 4
52 8 3
52 11 3
52 15 2
52 18 3
52 19 4
52 22 5
52 26 1
52 30 2
52 32 5
52 33 3
52 34 4
52 35 2
52 36 4
52 40 3
52 41 2
52 42 1
52 47 3
52 49 5
52 50 2
52 51 3
53 2 1
53 5 1
53 7 2
53 8 4
53 13 5
53 14 1
53 18 4
53 20 2
53 23 5
53 25 5
53 28 1
53 30 5
53 33 2
53 35 2
53 38 1
53 39 3
53 40 5
53 41 4
53 42 1
53 44 1
53 48 5
53 49 3
53 52 2
54 2 5
54 3 4
54 4 1
54 10 1
54 11 3
54 13 1
54 14 5
54 15 1
54 16 1
54 24 5
54 26 4
54 27 5
54 28 5
54 29 3
54 30 2
54 31 3
54 33 5
54 38 5
54 41 4
54 42 4
54 44 4
54 47 1
54 48 3
54 49 2
54 50 5
54 51 1
54 53 4
55 2 2
55 6 5
55 7 1
55 8 4
55 9 4
55 12 4
55 14 5
55 16 4
55 17 2
55 18 4
55 19 1
55 21 3
55 22 1
55 24 5
55 25 4
55 26 1
55 27 3
55 28 1
55 30 5
55 32 3
55 33 1
55 36 4
55 38 5
55 39 1
55 40 2
55 42 2
55 43 4
55 44 5
55 45 4
55 47 5
55 50 3
55 52 4
55 54 5
56 0 1
56 1 3
56 4 1
56 5 5
56 6 5
56 7 4
56 8 1
56 10 4
56 14 5
56 16 4
56 18 5
56 21 4
56 22 1
56 23 3
56 26 1
56 29 4
56 32 4
56 33 3
56 34 3
56 35 2
56 38 1
56 39 2
56 43 4
56 44 3
56 46 3
56 53 1
56 54 3
56 55 3
57 0 5
57 1 2
57 2 4
57 5 4
57 6 1
57 8 3
57 10 3
57 11 2
57 13 4
57 15 4
57 16 4
57 18 1
57 19 3
57 21 2
57 22 1
57 24 4
57 25 2
57 27 5
57 28 4
57 29 1
57 30 1
57 31 1
57 33 2
57 35 1
57 36 1
57 37 4
57 39 3
57 42 4
57 45 3
57 46 3
57 49 4
57 50 4
57 51 1
57 52 3
57 53 1
57 54 4
57 55 5
58 0 4
58 3 1
58 4 4
58 5 3
58 10 1
58 11 5
58 13 3
58 18 2
58 20 3
58 21 3
58 23 4
58 24 5
58 26 3
58 30 3
58 31 5
58 32 3
58 35 4
58 37 4
58 39 4
58 40 5
58 41 1
58 43 1
58 44 5
58 48 2
58 49 3
58 50 1
58 51 1
58 52 2
58 53 4
58 54 2
58 55 2
58 56 3
59 1 5
59 3 2
59 6 3
59 9 4
59 12 5
59 13 4
59 15 1
59 16 1
59 19 4
59 20 4
59 21 4
59 22 2
59 23 4
59 26 2
59 31 3
59 33 4
59 34 3
59 38 4
59 40 5
59 43 3
59 44 2
59 45 5
59 46 2
59 47 3
59 51 3
59 52 5
59 55 5
59 56 2
59 58 1
60 0 3
60 1 3
60 6 3
60 8 1
60 10 5
60 11 2
60 12 5
60 14 1
60 16 5
60 18 5
60 20 3
60 23 3
60 24 4
60 26 1
60 27 3
60 31 2
60 34 2
60 35 1
60 36 5
60 40 5
60 41 5
60 42 5
60 43 3
60 44 4
60 46 5
60 47 4
60 51 2
60 55 5
60 57 3
60 58 1
61 3 4
61 10 2
61 12 4
61 13 5
61 16 1
61 17 5
61 18 1
61 19 3
61 20 5
61 21 2
61 23 3
61 28 1
61 29 1
61 30 5
61 36 2
61 38 1
61 42 3
61 46 4
61 50 4
61 51 4
61 58 4
61 60 3
62 0 3
62 1 1
62 5 3
62 6 5
62 8 3
62 9 2
62 11 5
62 12 2
62 13 1
62 14 2
62 18 4
62 19 5
62 21 2
62 22 1
62 23 5
62 25 5
62 27 2
62 29 3
62 30 4
62 31 4
62 33 2
62 34 2
62 35 2
62 41 1
62 42 4
62 48 5
62 52 1
62 55 1
62 57 5
62 59 3
62 60 1
62 61 1
63 0 2
63 1 4
63 4 3
63 6 5
63 8 5
63 9 2
63 10 5
63 11 1
63 12 1
63 14 1
63 15 1
63 16 4
63 17 5
63 19 3
63 20 3
63 23 5
63 27 4
63 30 2
63 31 5
63 33 2
63 34 2
63 35 5
63 38 2
63 39 3
63 44 4
63 45 1
63 49 4
63 55 3
63 56 1
63 58 4
63 59 1
63 60 2
64 0 4
64 1 4
64 2 1
64 7 3
64 10 3
64 12 3
64 13 1
64 16 1
64 18 4
64 21 3
64 22 2
64 23 5
64 25 5
64 28 5
64 29 5
64 30 3
64 36 4
64 38 1
64 43 4
64 44 3
64 46 2
64 47 4
64 49 4
64 50 2
64 54 5
64 58 2
64 59 4
64 61 1
64 62 3
64 63 1
65 0 2
65 1 1
65 2 5
65 4 3
65 5 1
65 7 1
65 9 5
65 10 4
65 11 1
65 12 5
65 13 5
65 14 1
65 15 2
65 18 4
65 20 5
65 21 5
65 22 2
65 23 3
65 24 4
65 26 2
65 28 3
65 32 5
65 41 4
65 42 2
65 45 4
65 48 1
65 49 4
65 50 5
65 51 3
65 52 4
65 54 3
65 55 1
65 57 4
65 59 5
66 0 2
66 1 5
66 4 4
66 6 5
66 7 1
66 9 4
66 10 4
66 11 3
66 14 3
66 15 3
66 17 1
66 18 5
66 19 2
66 20 1
66 26 5
66 27 4
66 39 3
66 40 2
66 41 3
66 43 1
66 44 5
66 45 5
66 46 1
66 47 2
66 49 1
66 50 5
66 51 5
66 54 1
66 56 2
66 57 1
66 58 4
66 59 5
66 60 3
66 63 1
66 64 5
66 65 4
67 1 3
67 2 2
67 3 2
67 4 2
67 5 1
67 8 3
67 11 2
67 12 3
67 13 5
67 17 5
67 19 5
67 20 4
67 21 2
67 22 4
67 25 2
67 26 5
67 28 3
67 30 3
67 31 3
67 32 5
67 34 1
67 35 5
67 36 5
67 37 3
67 38 1
67 39 2
67 40 4
67 41 3
67 43 5
67 44 4
67 46 2
67 47 3
67 51 4
67 55 2
67 57 1
67 59 4
67 61 3
67 63 5
67 64 5
67 65 2
67 66 1
68 0 5
68 1 2
68 4 1
68 6 5
68 7 4
68 8 2
68 9 5
68 10 1
68 17 3
68 20 1
68 21 4
68 22 1
68 24 5
68 26 5
68 29 1
68 35 4
68 38 3
68 39 4
68 40 3
68 42 1
68 43 5
68 45 5
68 49 3
68 51 2
68 52 4
68 54 2
68 55 5
68 59 5
68 63 3
68 66 1
69 0 3
69 1 1
69 5 5
69 7 5
69 8 2
69 9 3
69 10 3
69 11 3
69 13 5
69 14 1
69 16 4
69 17 1
69 18 4
69 20 5
69 22 2
69 25 3
69 27 5
69 29 3
69 34 4
69 35 1
69 39 1
69 40 1
69 41 1
69 43 3
69 44 5
69 45 3
69 47 3
69 48 1
69 49 2
69 50 1
69 51 4
69 54 1
69 55 4
69 56 1
69 57 5
69 58 3
69 61 3
69 62 4
69 63 5
69 65 1
69 67 4
69 68 1
